159 3752
27 79 
3 8 11 18 29 37 38 48 50 58 61 62 66 67 70 71 80 85 87 95 101 103 104 113 115 116 121 125 131 135 136 142 146 147 149 
2 4 5 6 8 10 11 12 13 14 15 16 18 19 20 22 23 24 25 28 29 31 35 37 38 39 40 41 43 44 45 47 48 49 50 51 52 53 55 57 58 59 60 61 62 63 65 66 67 68 70 71 72 73 75 76 78 80 82 83 84 85 86 87 88 91 92 94 95 96 97 98 99 101 103 104 106 110 111 112 113 115 116 117 118 119 121 123 125 126 127 128 130 131 132 134 135 136 137 138 139 140 142 145 146 147 148 149 151 154 156 158 
3 5 15 24 25 30 32 37 40 43 47 51 53 55 58 60 62 71 73 80 84 89 90 91 93 95 101 103 105 107 109 112 114 115 116 117 118 121 123 124 128 129 130 133 137 140 141 151 154 157 
3 4 10 15 24 25 30 32 37 40 43 47 51 52 53 58 68 71 72 73 84 87 89 90 91 93 95 98 103 105 106 107 109 110 112 114 115 116 117 121 123 124 129 130 133 137 140 141 151 154 157 
3 7 8 9 12 13 14 15 18 21 22 24 34 35 37 39 44 46 47 51 57 58 59 63 65 66 67 68 69 70 71 74 75 76 78 83 87 88 92 94 95 96 100 101 102 103 106 110 112 115 116 118 119 120 121 122 125 127 128 130 132 135 136 138 145 146 150 152 156 158 159 
6 9 12 13 14 21 22 34 35 36 57 59 65 68 69 71 74 75 76 83 87 88 92 94 96 98 100 102 103 106 110 115 119 120 122 127 138 145 150 152 156 158 159 
2 3 6 11 12 13 14 15 22 23 29 35 36 37 45 47 48 50 52 57 58 59 60 62 66 67 70 71 72 75 78 80 82 83 86 88 94 95 96 98 101 103 106 113 115 116 121 125 127 131 134 135 139 146 148 156 158 
6 7 12 13 14 22 34 35 46 59 65 69 74 75 76 88 92 94 96 100 102 119 120 122 127 145 150 152 156 158 159 
3 5 11 18 24 25 28 29 36 37 38 45 48 51 52 54 57 58 62 71 72 73 78 80 83 95 97 98 101 103 104 111 112 113 115 116 118 121 128 130 131 136 
2 3 8 10 29 36 45 48 50 52 56 57 58 66 67 68 70 71 72 78 83 95 98 103 106 110 113 115 116 121 125 131 135 138 146 
3 6 7 8 9 13 14 15 18 21 22 24 34 35 37 39 44 46 47 51 57 58 59 63 65 66 67 68 69 70 71 74 75 76 78 83 87 88 92 94 95 96 100 101 102 103 106 110 112 115 116 118 119 120 121 122 125 127 128 130 132 135 136 138 145 146 150 152 156 158 159 
3 6 7 8 9 12 14 15 18 21 22 24 34 35 37 39 44 46 47 51 57 58 59 63 65 66 67 68 69 70 71 74 75 76 78 83 87 88 92 94 95 96 100 101 102 103 106 110 112 115 116 118 119 120 121 122 125 127 128 130 132 135 136 138 145 146 150 152 156 158 159 
3 6 7 8 9 12 13 15 18 21 22 24 34 35 37 39 44 46 47 51 57 58 59 63 65 66 67 68 69 70 71 74 75 76 78 83 87 88 92 94 95 96 100 101 102 103 106 110 112 115 116 118 119 120 121 122 125 127 128 130 132 135 136 138 145 146 150 152 156 158 159 
3 4 5 6 8 12 13 14 16 18 19 20 22 23 24 25 29 30 31 32 37 39 40 41 43 47 51 55 57 58 59 60 62 66 67 68 70 71 77 78 79 80 82 83 84 86 87 88 91 93 94 95 96 98 99 101 103 104 106 110 112 113 115 116 117 121 123 125 126 127 130 131 132 134 135 136 137 138 139 140 146 148 151 154 156 157 158 
3 15 18 29 37 48 58 60 61 62 71 77 80 82 95 101 103 104 113 115 116 121 131 136 139 142 148 
18 61 62 80 85 101 104 136 142 147 
2 3 6 10 12 13 14 15 16 17 22 29 37 38 48 52 58 59 60 61 62 71 72 77 80 82 85 88 94 95 96 101 103 104 113 115 116 121 127 131 136 139 142 147 148 149 156 158 
3 15 31 37 39 47 58 60 71 80 82 86 95 101 103 115 116 121 132 139 
3 15 29 37 38 41 47 48 49 58 60 62 71 80 82 86 95 101 103 104 113 115 116 121 126 131 139 148 
6 7 12 13 14 22 34 35 36 57 59 68 69 74 75 83 87 88 92 94 96 106 110 120 122 127 138 150 156 158 
3 6 7 8 9 12 13 14 15 18 21 24 34 35 37 39 44 46 47 51 57 58 59 63 65 66 67 68 69 70 71 74 75 76 78 83 87 88 92 94 95 96 100 101 102 103 106 110 112 115 116 118 119 120 121 122 125 127 128 130 132 135 136 138 145 146 150 152 156 158 159 
3 8 15 24 31 37 39 47 51 55 58 60 62 66 67 68 70 71 80 82 86 95 98 101 103 104 106 110 112 113 115 116 117 121 125 130 131 132 134 135 138 139 146 148 154 
3 4 5 6 10 12 13 14 15 22 23 25 26 28 30 32 37 40 43 44 47 51 52 53 54 55 57 58 59 60 62 63 65 68 71 72 73 76 78 79 80 82 83 84 87 88 90 91 93 94 95 96 97 98 99 101 103 106 107 109 110 111 112 115 116 117 118 119 121 123 127 128 129 130 134 137 138 139 140 145 148 151 153 154 156 157 158 
3 4 5 10 15 24 28 30 32 37 40 43 47 51 52 53 55 58 71 72 73 84 90 91 93 95 97 99 103 108 109 111 112 115 116 117 118 121 123 128 129 130 137 140 151 154 157 
24 44 63 79 99 112 118 128 130 153 
1 45 79 
3 10 24 25 29 37 48 51 52 54 58 71 72 95 97 103 111 112 115 116 118 121 128 130 131 
2 3 8 10 11 15 16 18 20 28 37 38 45 48 49 50 52 58 61 62 66 67 68 70 71 72 80 82 85 87 95 97 101 103 104 106 110 111 113 115 116 121 125 126 131 135 136 138 142 146 147 148 149 
4 5 15 24 25 32 40 43 44 51 53 55 63 68 73 84 91 93 99 106 107 109 110 112 117 118 123 128 129 130 137 138 140 151 154 157 
3 15 19 23 37 39 47 58 60 62 71 80 82 86 95 101 103 115 116 121 132 134 139 148 
4 5 15 24 25 30 40 43 44 51 53 55 63 68 73 84 87 89 91 93 99 105 106 107 109 110 112 114 117 118 123 124 128 129 130 133 137 138 140 141 151 154 155 157 
52 64 72 143 
6 7 9 12 13 14 21 22 35 36 57 59 65 68 69 71 74 75 76 83 87 88 92 94 96 98 100 102 103 106 110 115 119 120 122 127 138 145 150 152 156 158 159 
3 6 7 8 9 12 13 14 21 22 34 37 39 43 47 53 58 59 65 66 67 68 69 70 71 74 75 76 87 88 92 94 95 96 100 102 103 106 110 115 116 119 120 121 122 125 127 132 135 138 145 146 150 152 156 158 159 
7 8 10 11 21 34 45 48 52 57 66 67 68 70 72 74 78 83 87 98 106 110 125 135 138 146 
2 3 4 5 6 8 10 12 13 14 15 16 18 19 20 22 23 24 25 28 29 31 35 38 39 40 41 43 44 47 48 49 50 51 52 53 55 57 58 59 60 61 62 63 65 66 67 68 70 71 72 75 76 78 80 82 83 84 86 87 88 91 94 95 96 97 98 99 101 103 104 106 110 111 112 113 115 116 119 121 123 125 126 127 128 130 131 132 134 135 136 137 138 139 140 145 146 148 151 156 158 
2 3 10 18 20 29 37 48 49 50 52 58 62 71 72 80 95 101 103 104 113 115 116 121 126 131 136 149 
3 6 12 13 14 15 19 22 23 31 35 37 47 58 59 60 62 71 75 80 82 86 88 94 95 96 101 103 115 116 121 127 132 134 139 148 156 158 
3 4 5 15 24 25 30 32 37 43 47 51 53 55 58 60 62 71 73 80 81 82 84 91 92 93 95 99 101 103 105 106 108 109 112 115 116 117 119 121 123 129 130 137 139 140 141 151 154 157 
3 15 20 37 47 58 62 71 95 103 113 115 116 121 126 131 
108 141 
3 4 5 15 24 25 30 32 35 37 40 47 51 53 55 58 68 71 73 75 81 84 87 91 93 95 99 103 106 107 108 109 110 112 115 116 117 121 123 129 130 137 140 141 151 154 157 
3 6 12 13 14 22 24 26 30 32 37 47 51 53 55 58 59 63 71 88 93 94 95 96 99 103 112 115 116 118 119 121 127 128 130 151 153 156 157 158 
3 8 10 11 27 29 36 48 52 57 58 66 67 70 71 72 73 78 79 83 90 95 98 103 106 113 115 116 121 125 131 135 146 
6 9 12 13 14 22 59 69 88 92 94 96 102 120 122 127 150 152 156 158 159 
3 4 5 6 8 12 13 14 15 19 20 22 23 24 25 31 35 37 39 40 41 43 44 51 53 55 57 58 59 60 62 63 65 66 67 68 70 71 73 75 76 78 80 82 83 84 86 87 88 90 91 94 95 96 98 99 101 103 104 106 109 110 112 113 115 116 118 119 121 123 125 126 127 128 129 130 131 132 134 135 137 138 139 140 145 146 148 151 156 158 
2 3 8 10 11 16 18 20 28 29 36 37 38 45 49 50 52 58 61 62 66 67 68 70 71 72 80 82 85 87 95 97 98 101 103 104 106 110 111 113 115 116 121 125 126 131 135 136 138 142 146 147 148 149 
3 20 29 37 38 48 58 71 95 103 113 115 116 121 126 131 
2 3 8 11 29 37 38 48 52 58 61 62 66 67 68 70 71 72 80 85 87 95 101 103 104 106 110 113 115 116 121 125 131 135 138 142 146 147 149 
3 4 5 6 10 12 13 14 15 22 23 24 25 28 30 32 37 40 43 44 47 52 53 54 55 57 58 59 60 62 63 65 68 71 72 73 76 78 80 82 83 84 87 88 90 91 93 94 95 96 97 98 99 101 103 106 107 109 110 111 112 115 116 117 118 119 121 123 127 128 129 130 134 137 138 139 140 145 148 151 154 156 157 158 
3 5 8 10 11 18 24 25 28 29 33 36 37 38 45 48 50 51 54 57 58 62 64 66 67 70 71 72 73 78 80 83 95 97 98 101 103 104 111 112 113 115 116 118 121 125 128 130 131 135 136 143 146 
3 4 5 24 25 30 32 35 37 40 43 44 47 51 55 58 63 68 71 73 75 84 87 89 90 91 93 95 99 103 105 106 107 108 109 110 112 114 115 116 117 118 121 123 124 128 129 130 133 137 140 141 151 154 157 
10 24 28 51 52 72 97 111 112 130 
3 4 15 23 24 25 30 32 37 40 43 44 47 51 53 57 58 60 62 63 71 73 78 80 82 83 84 86 91 93 95 98 99 103 107 109 112 115 116 117 118 121 123 128 129 130 134 137 139 140 151 154 157 
11 
3 6 7 8 10 11 12 13 14 15 21 22 24 34 36 37 45 47 51 52 55 58 59 60 62 66 67 68 70 71 72 73 74 78 80 82 83 87 88 94 95 96 98 99 101 103 106 110 112 115 116 121 125 127 130 135 138 139 146 151 156 158 
2 3 4 5 6 8 10 11 12 13 14 15 16 18 19 20 22 23 24 25 28 29 31 35 37 38 39 40 41 43 44 45 47 48 49 50 51 52 53 55 57 59 60 61 62 63 65 66 67 68 70 71 72 73 75 76 78 80 82 83 84 85 86 87 88 91 92 94 95 96 97 98 99 101 103 104 106 110 111 112 113 115 116 117 118 119 121 123 125 126 127 128 129 130 131 132 134 135 136 137 138 139 140 142 145 146 147 148 149 151 154 156 158 
3 6 7 8 9 12 13 14 15 18 21 22 24 34 35 37 39 44 46 47 51 57 58 63 65 66 67 68 69 70 71 74 75 76 78 83 87 88 92 94 95 96 100 101 102 103 106 110 112 115 116 118 119 120 121 122 125 127 128 130 132 135 136 138 145 146 150 152 156 158 159 
3 4 8 15 16 18 19 20 23 24 31 37 39 40 47 51 55 57 58 62 66 67 68 70 71 78 80 82 83 84 86 91 95 98 99 101 103 104 106 110 112 113 115 116 121 123 125 129 130 131 132 134 135 136 137 138 139 140 146 148 
2 3 16 17 18 29 37 48 50 58 62 71 77 80 82 85 95 101 103 104 113 115 116 121 131 136 139 142 147 148 
2 3 4 8 10 15 16 17 18 20 23 24 29 31 37 38 39 40 41 47 48 50 51 52 55 57 58 60 61 66 67 68 70 71 72 77 78 79 80 82 83 84 85 86 87 91 95 98 99 101 103 104 110 112 113 115 116 117 121 123 125 126 130 131 132 134 135 136 137 138 139 140 142 146 147 148 149 154 
3 6 12 13 14 22 24 26 30 32 37 44 47 51 53 55 58 59 71 88 93 94 95 96 99 103 112 115 116 118 119 121 127 128 130 151 153 156 157 158 
33 52 72 143 
3 6 7 9 12 13 14 22 24 34 35 37 47 51 58 59 68 69 71 74 75 76 87 88 92 94 95 96 100 102 103 106 110 112 115 116 119 120 121 122 127 130 138 145 150 152 156 158 159 
2 3 6 8 11 12 13 14 15 22 23 29 35 36 37 45 47 48 50 52 57 58 59 60 62 67 70 71 72 75 78 80 82 83 86 88 94 95 96 98 101 103 106 113 115 116 121 125 127 131 134 135 139 146 148 156 158 
2 3 6 8 11 12 13 14 15 22 23 29 35 36 37 45 47 48 50 52 57 58 59 60 62 66 70 71 72 75 78 80 82 83 86 88 94 95 96 98 101 103 106 113 115 116 121 125 127 131 134 135 139 146 148 156 158 
3 5 6 7 11 12 13 14 15 21 22 23 24 29 30 32 34 35 36 37 43 47 48 50 51 53 57 58 59 60 62 65 69 71 74 75 76 78 80 82 83 86 87 88 92 93 94 95 96 98 99 101 103 104 106 110 112 113 115 116 119 120 121 122 127 129 130 131 134 138 139 145 148 150 156 157 158 
6 7 9 12 13 14 21 22 34 35 46 59 65 68 74 75 76 87 88 92 94 96 100 102 106 110 119 120 122 127 138 145 150 152 156 158 159 
2 3 6 8 11 12 13 14 15 22 23 29 35 36 37 45 47 48 50 52 57 58 59 60 62 66 67 71 72 75 78 80 82 83 86 88 94 95 96 98 101 103 106 113 115 116 121 125 127 131 134 135 139 146 148 156 158 
2 3 4 5 6 7 8 10 11 12 13 14 15 16 18 19 20 22 23 24 25 28 29 31 34 35 37 38 39 40 41 43 44 45 47 48 49 50 51 52 53 55 57 58 59 60 61 62 63 65 66 67 68 70 72 73 74 75 76 78 80 82 83 84 85 86 87 88 90 91 92 94 95 96 97 98 99 100 101 103 104 106 109 110 111 112 113 115 116 117 118 119 121 123 125 126 127 128 129 130 131 132 134 135 136 137 138 139 140 142 145 146 147 148 149 151 154 156 158 
3 5 8 10 11 18 24 25 28 29 33 36 37 38 45 48 50 51 52 54 57 58 62 64 66 67 70 71 73 78 80 83 95 97 98 101 103 104 111 112 113 115 116 118 121 125 128 130 131 135 136 143 146 
3 4 5 10 24 25 30 32 40 43 45 47 51 52 53 55 57 58 71 72 78 83 84 90 91 93 95 103 109 112 116 117 118 121 123 128 129 130 137 140 151 154 157 
6 7 9 12 13 14 21 22 34 35 36 57 59 65 68 69 71 75 76 83 87 88 92 94 96 98 100 102 103 106 110 115 119 120 122 127 138 145 150 152 156 158 159 
3 6 7 8 9 12 13 14 21 22 34 35 37 39 43 47 53 58 59 65 66 67 68 69 70 71 74 76 87 88 92 94 95 96 100 102 103 106 110 115 116 119 120 121 122 125 127 135 138 145 146 150 152 156 158 159 
3 6 7 9 12 13 14 22 24 34 35 37 47 51 58 59 65 68 69 71 74 75 88 92 94 95 96 100 102 106 110 112 115 116 119 120 121 122 127 130 138 145 150 152 156 158 159 
15 16 18 61 62 80 82 101 104 136 139 148 
3 6 8 10 11 12 13 14 15 22 24 36 37 45 47 51 52 55 57 58 59 60 62 66 67 68 70 71 72 73 80 82 83 88 94 95 96 98 99 101 103 106 110 112 115 116 121 125 127 130 135 139 146 151 156 158 
1 15 24 26 27 45 62 99 112 130 153 
2 3 4 8 10 15 16 17 18 19 20 23 24 29 31 37 38 39 40 47 48 50 51 52 55 57 58 60 61 62 66 67 68 70 71 72 77 78 82 83 84 85 86 87 91 95 98 99 101 103 104 106 110 112 113 115 116 117 121 123 125 129 130 131 132 134 135 136 137 138 139 140 142 146 147 148 149 151 154 
40 43 109 117 154 
3 8 15 16 18 19 20 23 24 29 31 37 39 40 47 48 51 55 57 58 60 61 62 66 67 68 70 71 77 78 80 83 86 87 95 98 101 103 104 106 110 112 113 115 116 121 125 130 131 132 134 135 136 138 139 142 146 148 
3 6 7 8 10 11 12 13 14 15 21 22 24 34 36 37 45 47 51 52 55 57 58 59 60 62 66 67 68 70 71 72 73 74 78 80 82 87 88 94 95 96 98 99 101 103 106 110 112 115 116 121 125 127 130 135 138 139 146 151 156 158 
3 4 5 15 24 25 30 32 37 40 43 47 51 53 55 58 60 62 71 73 80 89 90 91 93 95 101 103 105 107 109 112 114 115 116 117 118 121 123 124 128 129 130 133 137 140 141 151 154 157 
2 3 17 18 29 48 50 58 61 62 71 80 95 101 103 104 113 115 116 121 131 136 142 147 
3 8 15 19 20 23 31 37 39 47 55 58 60 62 66 67 68 70 71 80 82 95 98 101 103 104 106 110 113 115 116 121 125 131 132 134 135 138 139 146 148 
2 3 5 6 7 12 13 14 15 21 22 24 29 32 34 35 36 37 43 47 48 50 51 53 57 58 59 62 65 68 69 71 74 75 80 82 83 88 93 94 95 96 98 99 101 103 104 106 110 112 113 115 116 120 121 122 127 129 130 131 138 145 150 156 157 158 
3 6 7 8 9 12 13 14 15 18 21 22 24 34 35 37 39 44 46 47 51 57 58 59 63 65 66 67 68 69 70 71 74 75 76 78 83 87 92 94 95 96 100 101 102 103 106 110 112 115 116 118 119 120 121 122 125 127 128 130 132 135 136 138 145 146 150 152 156 158 159 
4 5 32 53 84 91 93 105 114 123 124 129 133 137 140 151 157 
4 5 24 25 45 47 51 53 71 73 84 91 103 112 115 123 130 137 140 151 
3 4 5 15 24 25 30 32 37 40 43 47 51 53 55 58 60 62 71 73 80 84 89 90 93 95 101 103 105 107 109 112 114 115 116 117 118 121 123 124 128 129 130 133 137 140 141 151 154 157 
3 6 7 9 12 13 14 21 22 34 35 40 46 58 59 65 68 69 71 74 75 76 88 94 95 96 100 102 106 110 116 119 120 121 122 127 138 144 145 150 152 156 158 159 
4 5 15 24 25 30 32 40 43 44 51 53 55 63 68 73 84 87 89 91 99 105 106 107 109 110 112 114 117 118 123 124 128 129 130 133 137 138 140 141 151 154 155 157 
3 6 7 8 9 12 13 14 15 18 21 22 24 34 35 37 39 44 46 47 51 57 58 59 63 65 66 67 68 69 70 71 74 75 76 78 83 87 88 92 95 96 100 101 102 103 106 110 112 115 116 118 119 120 121 122 125 127 128 130 132 135 136 138 145 146 150 152 156 158 159 
2 3 4 5 6 8 10 11 12 13 14 15 16 18 19 20 22 23 24 25 28 29 31 35 37 38 39 40 41 43 44 45 47 48 49 50 51 52 53 55 57 58 59 60 61 62 63 65 66 67 68 70 71 72 73 75 76 78 80 82 83 84 85 86 87 88 91 92 94 96 97 98 99 101 103 104 106 109 110 111 112 113 115 116 117 118 119 121 123 125 126 127 128 130 131 132 134 135 136 137 138 139 140 142 145 146 147 148 149 151 154 156 158 
3 6 7 8 9 12 13 14 15 18 21 22 24 34 35 37 39 44 46 47 51 57 58 59 63 65 66 67 68 69 70 71 74 75 76 78 83 87 88 92 94 95 100 101 102 103 106 110 112 115 116 118 119 120 121 122 125 127 128 130 132 135 136 138 145 146 150 152 156 158 159 
3 10 24 25 28 29 37 48 51 52 54 58 71 72 95 103 111 112 115 116 118 121 128 130 131 
3 5 7 8 10 11 15 23 24 34 36 37 45 47 48 51 52 55 57 58 60 62 66 67 68 70 71 72 74 78 80 82 83 86 87 95 99 101 103 106 110 112 115 116 121 125 130 134 135 138 139 146 148 151 
3 15 24 25 26 30 32 37 40 43 44 47 51 53 55 57 58 60 62 63 68 71 78 79 80 83 87 93 95 98 103 104 106 109 110 112 113 115 116 117 118 121 128 129 130 131 138 153 154 157 
6 7 9 12 13 14 22 34 35 59 65 69 71 74 75 76 88 92 94 96 102 103 106 119 120 122 127 145 150 152 156 158 159 
2 3 4 6 8 10 12 13 14 15 16 17 18 19 20 22 23 24 29 31 37 38 39 40 47 48 50 51 52 57 58 59 60 61 62 66 67 68 70 71 72 77 78 80 82 83 84 85 86 87 88 91 94 95 96 98 103 104 106 110 112 113 115 116 121 123 125 127 130 131 132 134 135 136 137 138 139 140 142 146 147 148 156 158 
6 7 9 12 13 14 22 34 35 46 59 65 69 74 75 76 88 92 94 96 100 119 120 122 127 145 150 152 156 158 159 
2 3 4 5 6 7 8 10 11 12 13 14 15 16 18 19 20 22 23 24 25 28 29 31 34 35 37 38 39 40 41 43 44 45 47 48 49 50 51 52 53 55 57 58 59 60 61 62 63 65 66 67 68 70 71 72 73 74 75 78 80 82 83 84 85 86 87 88 90 91 94 95 96 97 98 99 100 101 104 106 110 111 112 113 115 116 117 118 119 121 123 125 126 127 128 129 130 131 132 134 135 136 137 138 139 140 142 146 147 148 149 151 154 156 158 
2 3 10 15 16 17 18 20 23 29 37 38 47 48 50 52 58 60 61 62 68 71 72 77 80 82 85 86 87 95 99 101 103 110 113 115 116 121 131 132 134 136 138 139 142 147 148 149 
4 5 32 40 53 84 89 91 93 114 123 124 129 133 137 140 151 157 
3 5 6 7 8 11 12 13 14 15 21 22 23 24 29 30 32 34 35 36 37 40 43 45 47 48 50 51 53 57 58 59 60 65 66 67 68 69 70 71 74 75 76 78 80 82 83 86 87 88 92 93 94 95 96 98 99 100 101 103 109 110 112 113 115 116 119 120 121 122 125 127 129 130 131 134 135 138 139 145 146 150 151 156 157 158 
4 5 24 30 32 43 51 53 55 84 91 93 109 112 123 129 130 137 140 151 157 
25 40 42 43 53 117 141 154 
4 5 24 25 30 32 40 43 47 51 53 55 71 73 81 84 91 93 95 99 106 107 112 117 123 129 130 137 140 141 151 154 157 
3 5 6 7 11 12 13 14 15 21 22 23 24 29 30 32 34 35 36 37 43 47 48 50 51 53 57 58 59 60 62 65 68 69 71 74 75 76 78 80 82 83 86 87 88 92 93 94 95 96 98 99 101 103 104 106 112 113 115 116 119 120 121 122 127 129 130 131 134 138 139 145 148 150 156 157 158 
3 10 24 25 28 29 37 48 51 52 54 58 71 72 95 97 103 112 115 116 118 121 128 130 131 
3 4 5 6 10 12 13 14 15 22 23 24 25 26 28 30 32 37 40 43 44 47 51 52 53 54 55 57 58 59 60 62 63 65 68 71 72 73 76 78 79 80 82 83 84 87 88 90 91 93 94 95 96 97 98 99 101 103 106 107 109 110 111 115 116 117 118 119 121 123 127 128 129 130 134 137 138 139 140 145 148 151 153 154 156 157 158 
2 3 8 10 11 15 16 18 20 23 29 37 38 41 45 47 48 49 50 52 58 60 61 62 66 67 68 70 71 72 80 82 85 86 87 95 99 101 103 104 106 110 115 116 121 125 126 131 134 135 136 138 139 142 146 147 148 149 
4 5 32 53 84 89 91 93 105 123 124 129 133 137 140 151 157 
2 3 4 5 6 7 8 10 11 12 13 14 15 16 18 19 20 22 23 24 25 28 29 31 34 35 37 38 39 40 41 43 44 45 47 48 49 50 51 52 53 55 57 58 59 60 61 62 63 65 66 67 68 70 71 72 74 75 76 78 80 82 83 84 85 86 87 88 90 91 94 95 96 97 98 99 101 103 104 106 110 111 112 113 116 119 121 123 125 126 127 129 130 131 132 134 135 136 137 138 139 140 141 142 145 146 147 148 149 151 156 158 
2 3 4 5 6 8 10 11 12 13 14 15 16 18 19 20 22 23 24 25 28 29 31 35 37 38 39 40 41 43 44 45 47 48 49 50 51 52 53 55 57 58 59 60 61 62 63 65 66 67 68 70 71 72 73 75 76 78 80 82 83 84 85 86 87 88 91 92 94 95 96 97 98 99 101 103 104 106 110 111 112 113 115 117 118 119 121 123 125 126 127 128 130 131 132 134 135 136 137 138 139 140 142 145 146 147 148 149 151 154 156 158 
3 4 5 15 23 24 25 30 32 40 43 51 53 55 58 62 71 73 80 81 84 91 93 95 99 103 108 109 112 116 118 121 123 128 129 130 133 134 137 139 140 141 151 154 157 
3 4 6 10 12 13 14 22 24 25 26 28 30 32 44 47 51 52 53 55 58 59 63 71 72 73 84 88 91 93 94 95 96 97 99 103 111 112 116 117 119 121 123 127 128 130 137 140 151 153 154 156 157 158 
3 6 7 9 12 13 14 22 24 34 35 37 40 44 47 51 58 59 63 65 68 69 71 74 75 76 88 92 94 95 96 100 102 103 106 110 112 115 116 118 120 121 122 127 128 130 138 144 145 150 152 156 158 159 
6 7 9 12 13 14 21 22 34 35 46 59 65 68 69 74 75 76 87 88 92 94 96 100 102 106 110 119 122 127 138 145 150 152 156 158 159 
2 3 4 5 6 8 10 11 12 13 14 15 16 18 19 20 22 23 24 25 28 29 31 35 37 38 39 40 41 43 44 45 47 48 49 50 51 52 53 55 57 58 59 60 61 62 63 65 66 67 68 70 71 72 73 75 76 78 80 82 83 84 85 86 87 88 91 92 94 95 96 97 98 99 101 103 104 106 110 111 112 113 115 116 117 118 119 123 125 126 127 128 130 131 132 134 135 136 137 138 139 140 142 145 146 147 148 149 151 154 156 158 
6 7 9 12 13 14 21 22 34 35 46 59 65 68 69 74 75 76 87 88 92 94 96 100 102 106 110 119 120 127 138 145 150 152 156 158 159 
3 4 5 15 24 25 30 32 37 40 43 47 51 53 55 58 60 62 71 73 80 84 89 90 91 93 95 101 103 105 107 109 112 114 115 116 117 118 121 124 128 129 130 133 137 140 141 151 154 157 
4 5 32 53 84 89 91 93 105 114 123 129 133 137 140 151 157 
2 3 6 8 11 12 13 14 15 22 23 29 35 36 37 45 47 48 50 52 57 58 59 60 62 66 67 70 71 72 75 78 80 82 83 86 88 94 95 96 98 101 103 106 113 115 116 121 127 131 134 135 139 146 148 156 158 
3 15 20 29 37 38 41 47 48 49 58 62 71 95 103 113 115 116 121 131 
3 6 7 8 9 12 13 14 15 18 21 22 24 34 35 37 39 44 46 47 51 57 58 59 63 65 66 67 68 69 70 71 74 75 76 78 83 87 88 92 94 95 96 100 101 102 103 106 110 112 115 116 118 119 120 121 122 125 128 130 132 135 136 138 145 146 150 152 156 158 159 
3 4 6 10 12 13 14 22 24 25 26 28 30 32 37 44 47 51 52 53 55 58 59 63 71 72 73 84 88 91 93 94 95 96 97 99 103 111 112 116 117 118 119 121 123 127 130 137 140 151 153 154 156 157 158 
4 5 24 25 30 32 40 43 47 51 53 55 58 60 68 71 73 80 84 87 89 91 93 99 103 105 106 107 109 110 112 114 115 117 123 124 130 133 137 138 140 141 151 154 157 
3 4 5 6 10 12 13 14 15 22 23 24 25 26 28 30 32 37 40 43 44 47 51 52 53 54 55 57 58 59 60 62 63 65 68 71 72 73 76 78 79 80 82 83 84 87 88 90 91 93 94 95 96 97 98 99 101 103 106 107 109 110 111 112 115 116 117 118 119 121 123 127 128 129 134 137 138 139 140 145 148 151 153 154 156 157 158 
2 3 8 10 11 15 16 18 20 23 28 29 37 38 41 45 47 48 49 50 52 58 60 61 62 66 67 68 70 71 72 80 82 85 86 87 95 97 99 101 103 104 106 110 111 113 115 116 121 125 126 134 135 136 138 139 142 146 147 148 149 
3 6 12 13 14 15 19 22 23 31 35 37 39 47 58 59 60 62 71 80 82 86 88 94 95 96 101 103 104 115 116 121 127 134 139 148 156 158 
4 5 32 53 84 89 91 93 105 114 117 123 124 129 137 140 151 154 155 157 
3 8 15 23 24 31 37 39 47 51 55 58 60 62 66 67 68 70 71 80 82 86 95 98 101 103 104 106 110 112 113 115 116 117 121 125 130 131 132 135 138 139 146 148 154 
2 3 6 8 11 12 13 14 15 22 23 29 35 36 37 45 47 48 50 52 57 58 59 60 62 66 67 70 71 72 75 78 80 82 83 86 88 94 95 96 98 101 103 106 113 115 116 121 125 127 131 134 139 146 148 156 158 
2 3 6 10 12 13 14 15 16 17 18 22 29 37 38 48 52 58 59 60 61 62 71 72 77 80 82 85 88 94 95 96 101 103 104 113 115 116 121 127 131 139 142 147 148 149 156 158 
3 4 5 15 24 25 30 32 37 40 43 47 51 53 55 58 60 62 71 73 80 84 89 90 91 93 95 101 103 105 107 109 112 114 115 116 117 118 121 123 124 128 129 130 133 140 141 151 154 157 
3 6 7 11 12 13 14 15 21 22 23 24 29 30 32 34 35 36 37 47 48 50 51 57 58 59 60 62 65 68 69 71 74 75 76 80 82 83 86 87 88 92 93 94 95 96 98 99 101 103 104 106 110 112 113 115 116 119 120 121 122 127 129 130 131 134 139 145 148 150 156 157 158 
3 8 15 16 18 19 20 23 24 31 37 39 40 47 51 55 57 58 60 61 62 66 67 68 70 71 77 78 80 82 83 86 95 98 101 103 104 106 110 112 113 115 116 117 121 125 130 131 132 134 135 136 138 146 148 154 
3 4 5 15 24 25 30 32 37 40 43 47 51 53 55 58 60 62 71 73 80 84 89 90 91 93 95 101 103 105 107 109 112 114 115 116 117 118 121 123 124 128 129 130 133 137 141 151 154 157 
4 5 32 40 42 43 53 84 91 93 108 109 115 117 123 129 137 140 151 154 157 
2 3 16 17 18 29 48 50 58 61 62 71 80 82 85 95 101 103 104 113 115 116 121 131 136 147 148 
33 52 64 72 
92 119 
3 6 7 9 12 13 14 22 24 34 35 37 47 51 58 59 65 68 69 71 74 75 76 87 88 92 94 95 96 100 102 106 110 112 115 116 119 120 121 122 127 130 138 150 152 156 158 159 
2 3 6 8 11 12 13 14 15 22 23 29 35 36 37 45 47 48 50 52 57 58 59 60 62 66 67 70 71 72 75 78 80 82 83 86 88 94 95 96 98 101 103 106 113 115 116 121 125 127 131 134 135 139 148 156 158 
2 3 17 18 29 48 50 58 61 62 71 80 85 95 101 103 104 113 115 116 121 131 136 142 149 
3 8 15 16 18 20 23 24 29 31 37 39 47 48 51 58 60 61 62 66 67 68 70 71 77 80 82 86 95 98 101 103 104 110 112 113 115 116 121 125 130 131 132 134 135 136 138 139 142 146 
2 3 18 29 38 48 50 58 62 71 80 95 103 104 113 115 116 121 131 136 147 
6 7 9 12 13 14 21 22 34 35 46 59 65 68 69 74 75 76 87 88 92 94 96 100 102 106 110 119 120 122 127 138 145 152 156 158 159 
3 4 5 15 24 25 30 32 37 40 43 44 47 51 53 55 57 58 63 71 73 78 80 83 84 89 90 91 93 95 98 103 105 106 107 109 112 114 115 116 117 118 121 123 124 128 129 130 133 137 140 141 154 155 157 
6 7 9 12 13 14 22 34 35 46 59 65 69 74 75 76 88 92 94 96 100 102 119 120 122 127 145 150 156 158 159 
24 26 44 63 79 99 112 118 128 130 
3 4 5 15 23 24 25 30 32 40 43 51 53 55 58 62 71 73 80 81 84 91 93 95 99 103 108 109 112 116 117 118 121 123 128 129 130 133 134 137 139 140 141 151 157 
32 93 133 151 157 
3 6 7 8 9 12 13 14 15 18 21 22 24 34 35 37 39 44 46 47 51 57 58 59 63 65 66 67 68 69 70 71 74 75 76 78 83 87 88 92 94 95 96 100 101 102 103 106 110 112 115 116 118 119 120 121 122 125 127 128 130 132 135 136 138 145 146 150 152 158 159 
4 5 15 24 25 30 32 40 43 44 51 53 55 63 68 73 84 87 89 91 93 99 105 106 107 109 110 112 114 117 118 123 124 128 129 130 133 137 138 140 141 151 154 155 
3 6 7 8 9 12 13 14 15 18 21 22 24 34 35 37 39 44 46 47 51 57 58 59 63 65 66 67 68 69 70 71 74 75 76 78 83 87 88 92 94 95 96 100 101 102 103 106 110 112 115 116 118 119 120 121 122 125 127 128 130 132 135 136 138 145 146 150 152 156 159 
6 7 9 12 13 14 22 34 35 46 59 65 69 74 75 76 88 92 94 96 100 102 119 120 122 127 145 150 152 156 158 
